letting n =  10
letting blocks =  [[1, 1], [1, 2], [1, 6], [1, 7], [1, 9], [1, 10], [2, 1], [2, 5], [2, 8], [3, 2], [3, 6], [3, 7], [3, 8], [3, 9], [3, 10], [4, 1], [4, 2], [4, 3], [4, 6], [4, 9], [4, 10], [5, 1], [5, 3], [5, 4], [5, 5], [5, 6], [5, 7], [6, 2], [6, 3], [6, 5], [6, 7], [6, 8], [7, 3], [7, 7], [7, 8], [7, 9], [7, 10], [8, 2], [8, 3], [8, 5], [8, 6], [8, 9], [9, 1], [9, 2], [9, 4], [9, 7], [9, 8], [10, 3], [10, 6], [10, 9]]
